# Solution for model micodag
# Objective value = 2.0244592018845985e+01
s_0_1 0
s_1_0 0
s_0_2 0
s_2_0 2.3165906576313855e-01
s_1_2 0
s_2_1 2.2727306091026023e-01
s_1_3 0
s_3_1 2.4905560975968877e-01
s_1_9 0
s_9_1 0
s_1_12 0
s_12_1 6.3582965897386279e-01
s_1_13 0
s_13_1 1.9353860941661605e-01
s_2_3 0
s_3_2 2.1960607540549004e-01
s_2_4 0
s_4_2 4.3807673861949947e-01
s_2_6 0
s_6_2 0
s_2_8 0
s_8_2 1.8686854079692194e-01
s_3_4 0
s_4_3 7.0302550667237140e-01
s_3_6 0
s_6_3 0
s_3_7 0
s_7_3 0
s_3_8 0
s_8_3 3.9825931385571867e-01
s_3_9 0
s_9_3 3.8103649936180695e-01
s_3_12 0
s_12_3 0
s_3_13 0
s_13_3 0.410278390548628
s_4_5 0
s_5_4 0
s_4_6 0
s_6_4 3.2836264094991829e-01
s_4_7 0
s_7_4 0
s_4_8 0
s_8_4 0
s_4_11 0
s_11_4 4.3189371375396046e-01
s_5_6 0
s_6_5 5.3855948825592881e-01
s_5_7 0
s_7_5 5.3770688443363923e-01
s_5_14 0
s_14_5 0.376114252610539
s_6_8 0
s_8_6 3.9677985576240848e-01
s_7_8 0
s_8_7 0
s_7_9 0
s_9_7 3.9079963458479661e-01
s_7_10 0
s_10_7 2.5181636422510589e-01
s_7_11 0
s_11_7 4.0209290321533464e-01
s_8_11 0
s_11_8 2.2850686777585638e-01
s_9_12 0
s_12_9 3.8356139045236892e-01
s_12_13 0
s_13_12 2.6615302545297803e-01
s_0_0 9.0735853557486168e-01
s_1_1 6.1027133271964118e-01
s_2_2 6.5874266882626831e-01
s_3_3 6.7373250159430720e-01
s_4_4 1.0962231999081218e+00
s_5_5 6.5369049977116944e-01
s_6_6 8.8543978966113235e-01
s_7_7 9.5193165999596241e-01
s_8_8 6.4604205587437891e-01
s_9_9 9.8540222694320212e-01
s_10_10 6.9544077050021436e-01
s_11_11 6.8190897755245317e-01
s_12_12 1.0415580216485441e+00
s_13_13 6.0300179385637076e-01
s_14_14 8.8743783631773043e-01
Gamma_0_0 9.5255369170187054e-01
Gamma_0_1 0
Gamma_0_2 0
Gamma_0_3 0
Gamma_0_4 0
Gamma_0_5 0
Gamma_0_6 0
Gamma_0_7 0
Gamma_0_8 0
Gamma_0_9 0
Gamma_0_10 0
Gamma_0_11 0
Gamma_0_12 0
Gamma_0_13 0
Gamma_0_14 0
Gamma_1_0 0
Gamma_1_1 0.781198651253087
Gamma_1_2 0
Gamma_1_3 0
Gamma_1_4 0
Gamma_1_5 0
Gamma_1_6 0
Gamma_1_7 0
Gamma_1_8 0
Gamma_1_9 0
Gamma_1_10 0
Gamma_1_11 0
Gamma_1_12 0
Gamma_1_13 0
Gamma_1_14 0
Gamma_2_0 -4.8130973994210763e-01
Gamma_2_1 -4.7673164454466516e-01
Gamma_2_2 8.1162963772047492e-01
Gamma_2_3 0
Gamma_2_4 0
Gamma_2_5 0
Gamma_2_6 0
Gamma_2_7 0
Gamma_2_8 0
Gamma_2_9 0
Gamma_2_10 0
Gamma_2_11 0
Gamma_2_12 0
Gamma_2_13 0
Gamma_2_14 0
Gamma_3_0 0
Gamma_3_1 4.9905471619822356e-01
Gamma_3_2 4.6862146280926043e-01
Gamma_3_3 8.2081209883523765e-01
Gamma_3_4 0
Gamma_3_5 0
Gamma_3_6 0
Gamma_3_7 0
Gamma_3_8 0
Gamma_3_9 0
Gamma_3_10 0
Gamma_3_11 0
Gamma_3_12 0
Gamma_3_13 0
Gamma_3_14 0
Gamma_4_0 0
Gamma_4_1 0
Gamma_4_2 6.6187365759599426e-01
Gamma_4_3 8.3846616310520949e-01
Gamma_4_4 1.04700678121401
Gamma_4_5 0
Gamma_4_6 0
Gamma_4_7 0
Gamma_4_8 0
Gamma_4_9 0
Gamma_4_10 0
Gamma_4_11 0
Gamma_4_12 0
Gamma_4_13 0
Gamma_4_14 0
Gamma_5_0 0
Gamma_5_1 0
Gamma_5_2 0
Gamma_5_3 0
Gamma_5_4 0
Gamma_5_5 8.0851128611242618e-01
Gamma_5_6 0
Gamma_5_7 0
Gamma_5_8 0
Gamma_5_9 0
Gamma_5_10 0
Gamma_5_11 0
Gamma_5_12 0
Gamma_5_13 0
Gamma_5_14 0
Gamma_6_0 0
Gamma_6_1 0
Gamma_6_2 0
Gamma_6_3 0
Gamma_6_4 -5.7302935435274116e-01
Gamma_6_5 0.733866124205178
Gamma_6_6 9.4097810264699178e-01
Gamma_6_7 0
Gamma_6_8 0
Gamma_6_9 0
Gamma_6_10 0
Gamma_6_11 0
Gamma_6_12 0
Gamma_6_13 0
Gamma_6_14 0
Gamma_7_0 0
Gamma_7_1 0
Gamma_7_2 0
Gamma_7_3 0
Gamma_7_4 0
Gamma_7_5 -0.733284995369222
Gamma_7_6 0
Gamma_7_7 0.975669851945812
Gamma_7_8 0
Gamma_7_9 0
Gamma_7_10 0
Gamma_7_11 0
Gamma_7_12 0
Gamma_7_13 0
Gamma_7_14 0
Gamma_8_0 0
Gamma_8_1 0
Gamma_8_2 4.3228294067303047e-01
Gamma_8_3 6.3107789840535489e-01
Gamma_8_4 0
Gamma_8_5 0
Gamma_8_6 -6.2990464021342885e-01
Gamma_8_7 0
Gamma_8_8 8.0376741404113894e-01
Gamma_8_9 0
Gamma_8_10 0
Gamma_8_11 0
Gamma_8_12 0
Gamma_8_13 0
Gamma_8_14 0
Gamma_9_0 0
Gamma_9_1 0
Gamma_9_2 0
Gamma_9_3 6.1728153978699840e-01
Gamma_9_4 0
Gamma_9_5 0
Gamma_9_6 0
Gamma_9_7 -6.2513969205674069e-01
Gamma_9_8 0
Gamma_9_9 9.9267428038768224e-01
Gamma_9_10 0
Gamma_9_11 0
Gamma_9_12 0
Gamma_9_13 0
Gamma_9_14 0
Gamma_10_0 0
Gamma_10_1 0
Gamma_10_2 0
Gamma_10_3 0
Gamma_10_4 0
Gamma_10_5 0
Gamma_10_6 0
Gamma_10_7 5.0181307697698208e-01
Gamma_10_8 0
Gamma_10_9 0
Gamma_10_10 8.3393091470469871e-01
Gamma_10_11 0
Gamma_10_12 0
Gamma_10_13 0
Gamma_10_14 0
Gamma_11_0 0
Gamma_11_1 0
Gamma_11_2 0
Gamma_11_3 0
Gamma_11_4 -6.5718620934554040e-01
Gamma_11_5 0
Gamma_11_6 0
Gamma_11_7 6.3410795864374347e-01
Gamma_11_8 4.7802391966914942e-01
Gamma_11_9 0
Gamma_11_10 0
Gamma_11_11 0.82577780156193
Gamma_11_12 0
Gamma_11_13 0
Gamma_11_14 0
Gamma_12_0 0
Gamma_12_1 -7.9738927693684458e-01
Gamma_12_2 0
Gamma_12_3 0
Gamma_12_4 0
Gamma_12_5 0
Gamma_12_6 0
Gamma_12_7 0
Gamma_12_8 0
Gamma_12_9 -6.1932333272077678e-01
Gamma_12_10 0
Gamma_12_11 0
Gamma_12_12 1.0205674998002556e+00
Gamma_12_13 0
Gamma_12_14 0
Gamma_13_0 0
Gamma_13_1 4.3993023244216450e-01
Gamma_13_2 0
Gamma_13_3 6.4052977335064509e-01
Gamma_13_4 0
Gamma_13_5 0
Gamma_13_6 0
Gamma_13_7 0
Gamma_13_8 0
Gamma_13_9 0
Gamma_13_10 0
Gamma_13_11 0
Gamma_13_12 5.1590020881269183e-01
Gamma_13_13 7.7653190137712358e-01
Gamma_13_14 0
Gamma_14_0 0
Gamma_14_1 0
Gamma_14_2 0
Gamma_14_3 0
Gamma_14_4 0
Gamma_14_5 6.1328154432571991e-01
Gamma_14_6 0
Gamma_14_7 0
Gamma_14_8 0
Gamma_14_9 0
Gamma_14_10 0
Gamma_14_11 0
Gamma_14_12 0
Gamma_14_13 0
Gamma_14_14 9.4203919043622109e-01
psi_0 6
psi_1 6
psi_2 5
psi_3 4
psi_4 3
psi_5 4
psi_6 2
psi_7 3
psi_8 1
psi_9 2
psi_10 0
psi_11 0
psi_12 1
psi_13 0
psi_14 0
g_0_0 0
g_0_1 0
g_0_2 0
g_0_3 0
g_0_4 0
g_0_5 0
g_0_6 0
g_0_7 0
g_0_8 0
g_0_9 0
g_0_10 0
g_0_11 0
g_0_12 0
g_0_13 0
g_0_14 0
g_1_0 0
g_1_1 0
g_1_2 0
g_1_3 0
g_1_4 0
g_1_5 0
g_1_6 0
g_1_7 0
g_1_8 0
g_1_9 0
g_1_10 0
g_1_11 0
g_1_12 0
g_1_13 0
g_1_14 0
g_2_0 1
g_2_1 1
g_2_2 0
g_2_3 0
g_2_4 0
g_2_5 0
g_2_6 0
g_2_7 0
g_2_8 0
g_2_9 0
g_2_10 0
g_2_11 0
g_2_12 0
g_2_13 0
g_2_14 0
g_3_0 0
g_3_1 1
g_3_2 1
g_3_3 0
g_3_4 0
g_3_5 0
g_3_6 0
g_3_7 0
g_3_8 0
g_3_9 0
g_3_10 0
g_3_11 0
g_3_12 0
g_3_13 0
g_3_14 0
g_4_0 0
g_4_1 0
g_4_2 1
g_4_3 1
g_4_4 0
g_4_5 0
g_4_6 0
g_4_7 0
g_4_8 0
g_4_9 0
g_4_10 0
g_4_11 0
g_4_12 0
g_4_13 0
g_4_14 0
g_5_0 0
g_5_1 0
g_5_2 0
g_5_3 0
g_5_4 0
g_5_5 0
g_5_6 0
g_5_7 0
g_5_8 0
g_5_9 0
g_5_10 0
g_5_11 0
g_5_12 0
g_5_13 0
g_5_14 0
g_6_0 0
g_6_1 0
g_6_2 0
g_6_3 0
g_6_4 1
g_6_5 1
g_6_6 0
g_6_7 0
g_6_8 0
g_6_9 0
g_6_10 0
g_6_11 0
g_6_12 0
g_6_13 0
g_6_14 0
g_7_0 0
g_7_1 0
g_7_2 0
g_7_3 0
g_7_4 0
g_7_5 1
g_7_6 0
g_7_7 0
g_7_8 0
g_7_9 0
g_7_10 0
g_7_11 0
g_7_12 0
g_7_13 0
g_7_14 0
g_8_0 0
g_8_1 0
g_8_2 1
g_8_3 1
g_8_4 0
g_8_5 0
g_8_6 1
g_8_7 0
g_8_8 0
g_8_9 0
g_8_10 0
g_8_11 0
g_8_12 0
g_8_13 0
g_8_14 0
g_9_0 0
g_9_1 0
g_9_2 0
g_9_3 1
g_9_4 0
g_9_5 0
g_9_6 0
g_9_7 1
g_9_8 0
g_9_9 0
g_9_10 0
g_9_11 0
g_9_12 0
g_9_13 0
g_9_14 0
g_10_0 0
g_10_1 0
g_10_2 0
g_10_3 0
g_10_4 0
g_10_5 0
g_10_6 0
g_10_7 1
g_10_8 0
g_10_9 0
g_10_10 0
g_10_11 0
g_10_12 0
g_10_13 0
g_10_14 0
g_11_0 0
g_11_1 0
g_11_2 0
g_11_3 0
g_11_4 1
g_11_5 0
g_11_6 0
g_11_7 1
g_11_8 1
g_11_9 0
g_11_10 0
g_11_11 0
g_11_12 0
g_11_13 0
g_11_14 0
g_12_0 0
g_12_1 1
g_12_2 0
g_12_3 0
g_12_4 0
g_12_5 0
g_12_6 0
g_12_7 0
g_12_8 0
g_12_9 1
g_12_10 0
g_12_11 0
g_12_12 0
g_12_13 0
g_12_14 0
g_13_0 0
g_13_1 1
g_13_2 0
g_13_3 1
g_13_4 0
g_13_5 0
g_13_6 0
g_13_7 0
g_13_8 0
g_13_9 0
g_13_10 0
g_13_11 0
g_13_12 1
g_13_13 0
g_13_14 0
g_14_0 0
g_14_1 0
g_14_2 0
g_14_3 0
g_14_4 0
g_14_5 1
g_14_6 0
g_14_7 0
g_14_8 0
g_14_9 0
g_14_10 0
g_14_11 0
g_14_12 0
g_14_13 0
g_14_14 0
T_0 9.7217608658311860e-02
T_1 4.9385161297529123e-01
T_2 4.1742230810497460e-01
T_3 3.9492212875585153e-01
T_4 -9.1870817343277622e-02
T_5 0.425121281479349
T_6 1.2167081993653994e-01
T_7 4.9262032486012686e-02
T_8 4.3689067534585035e-01
T_9 1.4705368936532182e-02
T_10 3.6320943227995883e-01
T_11 3.8285909404511642e-01
T_12 -4.0717689863313922e-02
T_13 0.505835107373187
T_14 1.1941680367138474e-01
